
Gurobi 8.1.1 (linux64) logging started Sat Jul 20 01:12:43 2019

Changed value of parameter LogFile to opt_runs/f65_l300_d50_p200/gurobi.log
   Prev: gurobi.log  Default: 
Parameter OutputFlag unchanged
   Value: 1  Min: 0  Max: 1  Default: 1
Optimize a model with 10365 rows, 3000300 columns and 6000600 nonzeros
Variable types: 3000000 continuous, 300 integer (300 binary)
Coefficient statistics:
  Matrix range     [1e+00, 8e+03]
  Objective range  [5e-01, 2e+05]
  Bounds range     [1e+00, 1e+00]
  RHS range        [1e-01, 1e+02]
Presolve removed 6021 rows and 1800069 columns (presolve time = 5s) ...
Presolve removed 6021 rows and 1800069 columns (presolve time = 10s) ...
Presolve removed 6036 rows and 1800084 columns (presolve time = 15s) ...
Presolve removed 6036 rows and 1800084 columns
Presolve time: 18.09s
Presolved: 4329 rows, 1200216 columns, 2400426 nonzeros
Variable types: 1200006 continuous, 210 integer (210 binary)

Root simplex log...

Iteration    Objective       Primal Inf.    Dual Inf.      Time
       0    4.1018443e+10   3.190380e+05   0.000000e+00     22s

Starting sifting (using dual simplex for sub-problems)...

    Iter     Pivots    Primal Obj      Dual Obj        Time
       0          0     infinity      4.1018443e+10     22s
       1      10738   9.1350244e+12   5.0121951e+10     22s
       2      21669   4.8181735e+12   5.9442153e+10     23s
       3      32859   2.0850042e+12   6.9543646e+10     23s
       4      44395   3.2837658e+11   7.2447404e+10     24s
       5      56313   9.0400340e+10   7.3125597e+10     24s
       6      68145   7.6079370e+10   7.4066074e+10     24s
       7      73384   7.6025710e+10   7.5414081e+10     25s
       8      78279   7.6015942e+10   7.5953170e+10     25s

Sifting complete

   82633    7.6015942e+10   0.000000e+00   0.000000e+00     25s

Root relaxation: objective 7.601594e+10, 82633 iterations, 3.99 seconds
Total elapsed time = 25.06s

    Nodes    |    Current Node    |     Objective Bounds      |     Work
 Expl Unexpl |  Obj  Depth IntInf | Incumbent    BestBd   Gap | It/Node Time

     0     0 7.6016e+10    0  179          - 7.6016e+10      -     -   26s
H    0     0                    7.624897e+10 7.6016e+10  0.31%     -   28s
H    0     0                    7.613589e+10 7.6016e+10  0.16%     -   35s
     0     0 7.6031e+10    0  182 7.6136e+10 7.6031e+10  0.14%     -   39s
H    0     0                    7.612483e+10 7.6031e+10  0.12%     -   48s
     0     0 7.6038e+10    0  183 7.6125e+10 7.6038e+10  0.11%     -   53s
     0     0 7.6044e+10    0  182 7.6125e+10 7.6044e+10  0.11%     -   62s
     0     0 7.6048e+10    0  182 7.6125e+10 7.6048e+10  0.10%     -   70s
     0     0 7.6051e+10    0  179 7.6125e+10 7.6051e+10  0.10%     -   80s
     0     0 7.6054e+10    0  179 7.6125e+10 7.6054e+10  0.09%     -   89s
     0     0 7.6057e+10    0  181 7.6125e+10 7.6057e+10  0.09%     -  101s
     0     0 7.6058e+10    0  179 7.6125e+10 7.6058e+10  0.09%     -  112s
     0     0 7.6059e+10    0  177 7.6125e+10 7.6059e+10  0.09%     -  119s
     0     0 7.6060e+10    0  172 7.6125e+10 7.6060e+10  0.09%     -  127s
     0     0 7.6061e+10    0  170 7.6125e+10 7.6061e+10  0.08%     -  134s
     0     0 7.6061e+10    0  169 7.6125e+10 7.6061e+10  0.08%     -  139s
     0     0 7.6061e+10    0  171 7.6125e+10 7.6061e+10  0.08%     -  143s
     0     0 7.6061e+10    0  171 7.6125e+10 7.6061e+10  0.08%     -  149s
     0     0 7.6061e+10    0  170 7.6125e+10 7.6061e+10  0.08%     -  154s
     0     0 7.6062e+10    0  170 7.6125e+10 7.6062e+10  0.08%     -  158s
     0     0 7.6062e+10    0  169 7.6125e+10 7.6062e+10  0.08%     -  159s
     0     0 7.6062e+10    0  169 7.6125e+10 7.6062e+10  0.08%     -  162s
     0     0 7.6062e+10    0  168 7.6125e+10 7.6062e+10  0.08%     -  165s
     0     0 7.6062e+10    0  168 7.6125e+10 7.6062e+10  0.08%     -  168s
     0     0 7.6067e+10    0  174 7.6125e+10 7.6067e+10  0.08%     -  196s
H    0     0                    7.611535e+10 7.6067e+10  0.06%     -  211s
     0     0 7.6069e+10    0  170 7.6115e+10 7.6069e+10  0.06%     -  235s
     0     0 7.6071e+10    0  170 7.6115e+10 7.6071e+10  0.06%     -  261s
     0     0 7.6072e+10    0  169 7.6115e+10 7.6072e+10  0.06%     -  284s
     0     0 7.6073e+10    0  170 7.6115e+10 7.6073e+10  0.06%     -  309s
     0     0 7.6074e+10    0  168 7.6115e+10 7.6074e+10  0.05%     -  325s
     0     0 7.6074e+10    0  168 7.6115e+10 7.6074e+10  0.05%     -  340s
     0     0 7.6075e+10    0  171 7.6115e+10 7.6075e+10  0.05%     -  355s
     0     0 7.6075e+10    0  173 7.6115e+10 7.6075e+10  0.05%     -  365s
     0     0 7.6075e+10    0  167 7.6115e+10 7.6075e+10  0.05%     -  375s
     0     0 7.6075e+10    0  168 7.6115e+10 7.6075e+10  0.05%     -  381s
     0     0 7.6075e+10    0  165 7.6115e+10 7.6075e+10  0.05%     -  386s
     0     0 7.6075e+10    0  172 7.6115e+10 7.6075e+10  0.05%     -  390s
     0     0 7.6077e+10    0  172 7.6115e+10 7.6077e+10  0.05%     -  417s
H    0     0                    7.611107e+10 7.6077e+10  0.05%     -  466s
     0     0 7.6078e+10    0  168 7.6111e+10 7.6078e+10  0.04%     -  494s
     0     0 7.6079e+10    0  168 7.6111e+10 7.6079e+10  0.04%     -  522s
     0     0 7.6079e+10    0  162 7.6111e+10 7.6079e+10  0.04%     -  552s
     0     0 7.6080e+10    0  166 7.6111e+10 7.6080e+10  0.04%     -  577s
     0     0 7.6080e+10    0  169 7.6111e+10 7.6080e+10  0.04%     -  594s
     0     0 7.6080e+10    0  171 7.6111e+10 7.6080e+10  0.04%     -  613s
     0     0 7.6080e+10    0  165 7.6111e+10 7.6080e+10  0.04%     -  628s
     0     0 7.6080e+10    0  168 7.6111e+10 7.6080e+10  0.04%     -  637s
     0     0 7.6081e+10    0  161 7.6111e+10 7.6081e+10  0.04%     -  664s
H    0     0                    7.610512e+10 7.6081e+10  0.03%     -  686s
H    0     0                    7.610370e+10 7.6081e+10  0.03%     -  694s
     0     0 7.6081e+10    0  166 7.6104e+10 7.6081e+10  0.03%     -  721s
     0     0 7.6081e+10    0  168 7.6104e+10 7.6081e+10  0.03%     -  744s
     0     0 7.6082e+10    0  162 7.6104e+10 7.6082e+10  0.03%     -  760s
     0     0 7.6082e+10    0  168 7.6104e+10 7.6082e+10  0.03%     -  774s
     0     0 7.6082e+10    0  167 7.6104e+10 7.6082e+10  0.03%     -  787s
     0     0 7.6082e+10    0  162 7.6104e+10 7.6082e+10  0.03%     -  798s
     0     0 7.6082e+10    0  167 7.6104e+10 7.6082e+10  0.03%     -  825s
     0     0 7.6082e+10    0  167 7.6104e+10 7.6082e+10  0.03%     - 1012s
H    0     0                    7.608763e+10 7.6082e+10  0.01%     - 1091s

Cutting planes:
  Implied bound: 3203
  MIR: 43
  Flow cover: 262

Explored 1 nodes (119580 simplex iterations) in 1091.16 seconds
Thread count was 4 (of 4 available processors)

Solution count 8: 7.60876e+10 7.61037e+10 7.61051e+10 ... 7.6249e+10

Optimal solution found (tolerance 1.00e-04)
Best objective 7.608762647289e+10, best bound 7.608206717523e+10, gap 0.0073%

Solution quality statistics for model Unnamed :
  Maximum violation:
    Bound       : 0.00000000e+00
    Constraint  : 2.72848411e-12 (R89)
    Integrality : 0.00000000e+00
